NAME : mEgtspf
TYPE : ATSP
DIMENSION : 13
EDGE_WEIGHT_TYPE : EXPLICIT
EDGE_WEIGHT_FORMAT : FULL_MATRIX
EDGE_WEIGHT_SECTION
99999 11 0 43 44 39 32 19 20 25 0 31 0 
11 99999 0 34 33 28 23 24 27 30 0 26 0 
38 31 99999 5 6 7 10 21 20 23 0 33 0 
43 36 0 99999 11 12 15 26 25 28 0 28 0 
42 33 0 11 99999 7 12 25 24 21 0 37 0 
37 28 0 12 9 99999 7 20 19 18 0 38 0 
30 23 0 15 14 9 99999 13 14 19 0 37 0 
19 24 0 26 27 22 15 99999 3 8 0 48 0 
22 27 0 23 24 19 14 5 99999 5 0 51 0 
27 30 0 28 23 20 19 10 7 99999 0 54 0 
41 34 0 14 23 24 25 34 35 40 99999 16 0 
31 28 0 30 37 38 39 48 51 54 0 99999 0 
9 12 0 36 35 30 25 14 17 20 0 36 99999 
EOF
